
Log started (V11.0.0) Wed Apr 16 07:25:05 2008

Tried aggregator 1 time.
Reduced MIP has 130 rows, 3001 columns, and 6030 nonzeros.
Presolve time =    0.03 sec.
Clique table members: 100.
MIP emphasis: balance optimality and feasibility.
MIP search method: dynamic search.
Parallel mode: none, using 1 thread.
Root relaxation solution time =    0.06 sec.

        Nodes                                         Cuts/
   Node  Left     Objective  IInf  Best Integer     Best Node    ItCnt     Gap

*     0+    0                         5908.0000       44.4206      483   99.25%
*     0+    0                           57.0000       44.4206      483   22.07%
      0     0       45.0000    50       57.0000      Fract: 5      496   21.05%
      0     0       45.0000    53       57.0000   Impl Bds: 1      509   21.05%
      0     0       45.0000    52       57.0000   Impl Bds: 1      510   21.05%
*     0+    0                           56.0000       45.0000      510   19.64%
*     0+    0                           55.0000       45.0000      510   18.18%

Repeating presolve.
Tried aggregator 1 time.
MIP Presolve eliminated 0 rows and 1537 columns.
MIP Presolve modified 21 coefficients.
Reduced MIP has 130 rows, 1464 columns, and 2956 nonzeros.
Tried aggregator 1 time.
Represolve time =    0.05 sec.
Clique table members: 315.
MIP emphasis: balance optimality and feasibility.
MIP search method: dynamic search.
Parallel mode: none, using 1 thread.
Root relaxation solution time =    0.03 sec.

        Nodes                                         Cuts/
   Node  Left     Objective  IInf  Best Integer     Best Node    ItCnt     Gap

      0     0       45.0000    58       55.0000       45.0000      402   18.18%
      0     2       45.0000    58       55.0000       45.0000      402   18.18%
*    50+   45                           54.0000       45.0000     1365   16.67%
    100    90       51.0000    36       54.0000       45.0000     2528   16.67%
    200   168       46.0000    53       54.0000       45.0000     4739   16.67%
    300   253       48.0000    48       54.0000       45.0000     6935   16.67%
    400   326       46.0000    61       54.0000       45.0000     9209   16.67%
*   491+  376                           53.0000       45.0000    10540   15.09%
*   492+  316                           51.0000       45.0000    10684   11.76%
*   492+  283                           50.0000       45.0000    10684   10.00%
*   494+  190                           49.0000       47.0430    11988    3.99%
    500   194       47.2268   152       49.0000       47.1955    12144    3.68%

Cover cuts applied:  154
Mixed integer rounding cuts applied:  40
Gomory fractional cuts applied:  1

Solution pool: 9 solutions saved.

MIP - Integer optimal solution:  Objective = 4.9000000000e+001
Solution time =    9.11 sec.  Iterations = 38414  Nodes = 568 (139)


Incumbent solution
Variable Name           Solution Value
Cmax                         49.000000
X_1_5                         1.000000
X_2_24                        1.000000
X_3_18                        1.000000
X_4_17                        1.000000
X_5_1                         1.000000
X_6_8                         1.000000
X_7_19                        1.000000
X_8_17                        1.000000
X_9_29                        1.000000
X_10_10                       1.000000
X_11_25                       1.000000
X_12_27                       1.000000
X_13_13                       1.000000
X_14_3                        1.000000
X_15_3                        1.000000
X_16_29                       1.000000
X_17_17                       1.000000
X_18_4                        1.000000
X_19_26                       1.000000
X_20_30                       1.000000
X_21_12                       1.000000
X_22_25                       1.000000
X_23_16                       1.000000
X_24_15                       1.000000
X_25_3                        1.000000
X_26_13                       1.000000
X_27_27                       1.000000
X_28_29                       1.000000
X_29_12                       1.000000
X_30_7                        1.000000
X_31_7                        1.000000
X_32_24                       1.000000
X_33_6                        1.000000
X_34_12                       1.000000
X_35_19                       1.000000
X_36_14                       1.000000
X_37_10                       1.000000
X_38_16                       1.000000
X_39_1                        1.000000
X_40_8                        1.000000
X_41_9                        1.000000
X_42_24                       1.000000
X_43_4                        1.000000
X_44_15                       1.000000
X_45_23                       1.000000
X_46_30                       1.000000
X_47_14                       1.000000
X_48_13                       1.000000
X_49_5                        1.000000
X_50_21                       1.000000
X_51_22                       1.000000
X_52_21                       1.000000
X_53_26                       1.000000
X_54_20                       1.000000
X_55_28                       1.000000
X_56_4                        1.000000
X_57_8                        1.000000
X_58_9                        1.000000
X_59_28                       1.000000
X_60_10                       1.000000
X_61_9                        1.000000
X_62_20                       1.000000
X_63_12                       1.000000
X_64_18                       1.000000
X_65_5                        1.000000
X_66_22                       1.000000
X_67_27                       1.000000
X_68_15                       1.000000
X_69_29                       1.000000
X_70_18                       1.000000
X_71_1                        1.000000
X_72_18                       1.000000
X_73_8                        1.000000
X_74_2                        1.000000
X_75_30                       1.000000
X_76_1                        1.000000
X_77_25                       1.000000
X_78_28                       1.000000
X_79_28                       1.000000
X_80_11                       1.000000
X_81_22                       1.000000
X_82_7                        1.000000
X_83_6                        1.000000
X_84_11                       1.000000
X_85_20                       1.000000
X_86_23                       1.000000
X_87_11                       1.000000
X_88_14                       1.000000
X_89_2                        1.000000
X_90_9                        1.000000
X_91_23                       1.000000
X_92_2                        1.000000
X_93_15                       1.000000
X_94_6                        1.000000
X_95_26                       1.000000
X_96_21                       1.000000
X_97_20                       1.000000
X_98_14                       1.000000
X_99_4                        1.000000
X_100_23                      1.000000
All other variables in the range 1-3001 are 0.
